\ENCODING=ISO-8859-1
\Problem name: IloCplex

Maximize
 obj: X(17) + X(18) + X(19)
Subject To
 FLUX(1): X(0) - X(3) - X(4)  = 0
 FLUX(2): X(1) - X(5) - X(6) - X(7)  = 0
 FLUX(3): X(2) - X(8) - X(9)  = 0
 FLUX(4): X(3) + X(5) - X(10) - X(11)  = 0
 FLUX(5): X(4) + X(6) + X(8) - X(12) - X(13) - X(14)  = 0
 FLUX(6): X(7) + X(9) - X(15) - X(16)  = 0
 FLUX(7): X(10) + X(12) - X(17)  = 0
 FLUX(8): X(11) + X(13) + X(15) - X(18)  = 0
 FLUX(9): X(14) + X(16) - X(19)  = 0
Bounds
 0 <= X(0) <= 245
 0 <= X(1) <= 270
 0 <= X(2) <= 260
 0 <= X(3) <= 130
 0 <= X(4) <= 115
 0 <= X(5) <= 70
 0 <= X(6) <= 90
 0 <= X(7) <= 110
 0 <= X(8) <= 140
 0 <= X(9) <= 120
 0 <= X(10) <= 110
 0 <= X(11) <= 85
 0 <= X(12) <= 130
 0 <= X(13) <= 95
 0 <= X(14) <= 85
 0 <= X(15) <= 130
 0 <= X(16) <= 160
 0 <= X(17) <= 220
 0 <= X(18) <= 330
 0 <= X(19) <= 240
End
